HFSDDW
15	12	4
0	31	1	67	2	65	3	72
0	86	1	67	2	83	3	34
0	63	1	13	2	24	3	15
0	2	1	57	2	75	3	62
0	55	1	36	2	15	3	73
0	19	1	15	2	60	3	8
0	49	1	32	2	29	3	39
0	93	1	33	2	66	3	11
0	28	1	23	2	70	3	99
0	38	1	64	2	30	3	5
0	78	1	34	2	88	3	62
0	69	1	76	2	64	3	25
0	1	1	19	2	95	3	27
0	31	1	1	2	27	3	17
0	7	1	58	2	23	3	54
LBCmax: 314
RELDUE
-1	181	8	3
-1	185	9	4
-1	182	7	7
-1	176	1	4
-1	186	7	4
-1	165	4	8
-1	212	3	9
-1	207	5	9
-1	212	8	4
-1	205	7	6
-1	172	4	9
-1	215	6	2
-1	160	6	9
-1	163	8	4
-1	217	3	9
DDW
179	183
176	194
173	191
172	180
169	203
134	196
208	216
197	217
191	233
168	242
158	186
211	219
138	182
132	194
213	221
